job_count = 28 ;
duration = [|8, 7|10, 4|3, 5|12, 4|11, 3|13, 6|2, 8|8, 1|7, 7|12, 4|3, 2|12, 6|7, 6|6, 1|7, 8|8, 4|8, 4|19, 5|7, 4|16, 9|6, 6|15, 3|4, 5|17, 4|8, 4|17, 9|9, 4|17, 1|] ;
machine_count = 2 ;
cost = [|14, 27|17, 25|18, 39|18, 20|15, 26|16, 34|17, 35|18, 30|13, 21|13, 22|18, 25|11, 39|11, 39|12, 36|18, 23|15, 38|11, 33|13, 26|11, 28|14, 37|15, 39|12, 36|11, 22|11, 27|15, 20|13, 38|17, 38|14, 38|] ;
deadline = [70, 70, 70, 70, 70, 70, 70, 70, 70, 70, 70, 70, 70, 70, 70, 70, 70, 70, 70, 70, 70, 70, 70, 70, 70, 70, 70, 70] ;
release = [0, 0, 0, 0, 0, 0, 0, 0, 0, 0, 0, 0, 0, 0, 0, 0, 0, 0, 0, 0, 0, 0, 0, 0, 0, 0, 0, 0] ;
resource = [|4, 4|1, 1|5, 5|6, 6|1, 1|1, 1|5, 5|3, 3|1, 1|6, 6|7, 7|6, 6|6, 6|9, 9|4, 4|5, 5|7, 7|3, 3|4, 4|1, 1|4, 4|5, 5|3, 3|4, 4|6, 6|5, 5|4, 4|8, 8|] ;
capacities = [10, 10] ;
